 &control
    calculation = 'relax',
    etot_conv_thr = 1.0d-4,
    forc_conv_thr = 1.0d-3,
    restart_mode = 'from_scratch',
    prefix = 'carbazole',
    outdir = 'tmp_output',
    pseudo_dir = '/u/sciteam/zhang7/svn_personal/qe/pp'
 /
 &system
    ibrav = 0,
    nat = 88,
    ntyp = 3,
    ecutwfc = 40
 /
 &electrons
    mixing_beta = 0.7,
    conv_thr = 1.d-8,
    electron_maxstep = 100,
    startingwfc = 'atomic+random'
 /
 &ions
    ion_positions = "default"
 /

ATOMIC_SPECIES
 C  12.000  C.pbe-mt_fhi.UPF
 H  1.000  H.pbe-mt_fhi.UPF
 N  14.000 N.pbe-mt_fhi.UPF

CELL_PARAMETERS angstrom
 5.7250 0.0000 0.0000
 0.0000 7.7720 0.0000
 0.0000 0.0000 19.182

K_POINTS automatic
 3 3 1 0 0 0

ATOMIC_POSITIONS angstrom
 C     0.639599979         0.213400006         0.308899999
 C     0.360400021         0.786599994         0.691100001
 C     0.139599994         0.286599994         0.691100001
 C     0.860400021         0.713400006         0.308899999
 C     0.139599994         0.286599994         0.808899999
 C     0.860400021         0.713400006         0.191100001
 C     0.639599979         0.213400006         0.191100001
 C     0.360400021         0.786599994         0.808899999
 C     0.695299983         0.240400001         0.379299998
 C     0.304700017         0.759599984         0.620700002
 C     0.195299998         0.259600013         0.620700002
 C     0.804700017         0.740399957         0.379299998
 C     0.195299998         0.259600013         0.879299998
 C     0.804700017         0.740399957         0.120700002
 C     0.695299983         0.240400001         0.120700002
 C     0.304700017         0.759599984         0.879299998
 C     0.536800027         0.177699998         0.426600009
 C     0.463199973         0.822300017         0.573400021
 C     0.036800001         0.322299987         0.573400021
 C     0.963199973         0.677700043         0.426599979
 C     0.036800001         0.322299987         0.926599979
 C     0.963199973         0.677700043         0.073400021
 C     0.536800027         0.177699998         0.073399998
 C     0.463199973         0.822300017         0.926599979
 C     0.331800014         0.092500001         0.408199996
 C     0.668200016         0.907500029         0.591799974
 C     0.168200001         0.592499971         0.408199996
 C     0.831799984         0.407500029         0.591799974
 C     0.168200001         0.592499971         0.091799997
 C     0.831799984         0.407500029         0.908200026
 C     0.331800014         0.092500001         0.091799997
 C     0.668200016         0.907500029         0.908200026
 C     0.277000010         0.067299999         0.338200003
 C     0.722999990         0.932699978         0.661800027
 C     0.223000005         0.567300022         0.338200003
 C     0.777000010         0.432699978         0.661800027
 C     0.223000005         0.567300022         0.161799997
 C     0.777000010         0.432699978         0.838199973
 C     0.277000010         0.067299999         0.161799997
 C     0.722999990         0.932699978         0.838199973
 C     0.432099998         0.130199999         0.288500011
 C     0.567900002         0.869799972         0.711499989
 C     0.067900002         0.630200028         0.288500011
 C     0.932099998         0.369799972         0.711499989
 C     0.067900002         0.630200028         0.211500004
 C     0.932099998         0.369799972         0.788500011
 C     0.432099998         0.130199999         0.211500004
 C     0.567900002         0.869799972         0.788500011
 H     0.150500000         0.716000021         0.608399987
 H     0.849500000         0.283999979         0.391600013
 H     0.349500000         0.216000006         0.608399987
 H     0.650500000         0.783999979         0.391600013
 H     0.349500000         0.216000006         0.891600013
 H     0.650500000         0.783999979         0.108399987
 H     0.849500000         0.284000009         0.108400002
 H     0.150500000         0.715999961         0.891600013
 H     0.934899986         0.302199990         0.250000000
 H     0.065100014         0.697800040         0.750000000
 H     0.434899986         0.197799996         0.750000000
 H     0.565100014         0.802200019         0.250000000
 H     0.591099977         0.193299994         0.470699996
 H     0.408900023         0.806699991         0.529299974
 H     0.091100000         0.306699991         0.529299974
 H     0.908900023         0.693300009         0.470700026
 H     0.091100000         0.306699991         0.970700026
 H     0.908900023         0.693300009         0.029299974
 H     0.591099977         0.193299994         0.029300001
 H     0.408900023         0.806699991         0.970700026
 H     0.187000006         0.070299998         0.436800003
 H     0.812999964         0.929700017         0.563199997
 H     0.312999994         0.570299983         0.436800003
 H     0.687000036         0.429700017         0.563199997
 H     0.312999994         0.570299983         0.063199997
 H     0.687000036         0.429700017         0.936800003
 H     0.187000006         0.070299998         0.063199997
 H     0.812999964         0.929700017         0.936800003
 H     0.099799998         0.020099999         0.325700015
 H     0.900200009         0.979900002         0.674299955
 H     0.400200009         0.520099998         0.325700015
 H     0.599799991         0.479900002         0.674299955
 H     0.400200009         0.520099998         0.174300000
 H     0.599799991         0.479900002         0.825699985
 H     0.099799998         0.020099999         0.174300000
 H     0.900200009         0.979900002         0.825699985
 N     0.765399992         0.262699991         0.250000000
 N     0.234600008         0.737300038         0.750000000
 N     0.265399992         0.237299994         0.750000000
 N     0.734600008         0.762700021         0.250000000
