cif2pos.py
1.0
   5.1305800    0.0000000    0.0000000
   0.0000000    5.1305800    0.0000000
   0.0000000    0.0000000    5.1305800
  0  0
Direct
