PREC   =  accurate
ISTART =      0
ICHARG =      2
ISPIN  =      1
!ISYM   =      0
ENCUT  = 800.0
NELM   =     1000  
EDIFF  =   1.0e-8  
LREAL  =   .FALSE. 
ALGO   =   normal  
ADDGRID = .TRUE.
ISMEAR =     0   
SIGMA  =   0.05  
EDIFFG =   1.0e-7   
NSW    =   1000  
IBRION =   2   
POTIM  =   0.5  
ISIF   =  2
LWAVE = .FALSE.
LCHARG = .FALSE.
NPAR   =      8  
LPLANE =  .FALSE.
LSCALU = .FALSE.
LSCALAPACK = .FALSE.
