Automatic mesh
0
Monkhorst-Pack
4 4 4
1 1 1
