NH3
1.0
  20.5219999999999985    0.0000000000000000    0.0000000000000000
   0.0000000000000013   20.5219999999999985    0.0000000000000000
   0.0000000000000013    0.0000000000000013   20.5219999999999985
H N
768 256
Direct
   0.0930500000000000    0.0656750000000000    0.0278250000000000    !H
   0.0930500000000000    0.0656750000000000    0.0278250000000000    !H
   0.0930500000000000    0.0656750000000000    0.0278250000000000    !H
   0.0930500000000000    0.0656750000000000    0.0278250000000000    !H
   0.0930500000000000    0.0656750000000000    0.0278250000000000    !H
   0.0930500000000000    0.0656750000000000    0.0278250000000000    !H
   0.0930500000000000    0.0656750000000000    0.0278250000000000    !H
   0.0930500000000000    0.0656750000000000    0.0278250000000000    !H
   0.0930500000000000    0.0656750000000000    0.0278250000000000    !H
   0.0930500000000000    0.0656750000000000    0.0278250000000000    !H
   0.0930500000000000    0.0656750000000000    0.0278250000000000    !H
   0.0930500000000000    0.0656750000000000    0.0278250000000000    !H
   0.0930500000000000    0.0656750000000000    0.0278250000000000    !H
   0.0930500000000000    0.0656750000000000    0.0278250000000000    !H
   0.0930500000000000    0.0656750000000000    0.0278250000000000    !H
   0.0930500000000000    0.0656750000000000    0.0278250000000000    !H
   0.3430500000000000    0.3156750000000000    0.2778250000000000    !H
   0.3430500000000000    0.3156750000000000    0.2778250000000000    !H
   0.3430500000000000    0.3156750000000000    0.2778250000000000    !H
   0.3430500000000000    0.3156750000000000    0.2778250000000000    !H
   0.3430500000000000    0.3156750000000000    0.2778250000000000    !H
   0.3430500000000000    0.3156750000000000    0.2778250000000000    !H
   0.3430500000000000    0.3156750000000000    0.2778250000000000    !H
   0.3430500000000000    0.3156750000000000    0.2778250000000000    !H
   0.3430500000000000    0.3156750000000000    0.2778250000000000    !H
   0.3430500000000000    0.3156750000000000    0.2778250000000000    !H
   0.3430500000000000    0.3156750000000000    0.2778250000000000    !H
   0.3430500000000000    0.3156750000000000    0.2778250000000000    !H
   0.3430500000000000    0.3156750000000000    0.2778250000000000    !H
   0.3430500000000000    0.3156750000000000    0.2778250000000000    !H
   0.3430500000000000    0.3156750000000000    0.2778250000000000    !H
   0.3430500000000000    0.3156750000000000    0.2778250000000000    !H
   0.5930500000000000    0.5656750000000000    0.5278250000000000    !H
   0.5930500000000000    0.5656750000000000    0.5278250000000000    !H
   0.5930500000000000    0.5656750000000000    0.5278250000000000    !H
   0.5930500000000000    0.5656750000000000    0.5278250000000000    !H
   0.5930500000000000    0.5656750000000000    0.5278250000000000    !H
   0.5930500000000000    0.5656750000000000    0.5278250000000000    !H
   0.5930500000000000    0.5656750000000000    0.5278250000000000    !H
   0.5930500000000000    0.5656750000000000    0.5278250000000000    !H
   0.5930500000000000    0.5656750000000000    0.5278250000000000    !H
   0.5930500000000000    0.5656750000000000    0.5278250000000000    !H
   0.5930500000000000    0.5656750000000000    0.5278250000000000    !H
   0.5930500000000000    0.5656750000000000    0.5278250000000000    !H
   0.5930500000000000    0.5656750000000000    0.5278250000000000    !H
   0.5930500000000000    0.5656750000000000    0.5278250000000000    !H
   0.5930500000000000    0.5656750000000000    0.5278250000000000    !H
   0.5930500000000000    0.5656750000000000    0.5278250000000000    !H
   0.8430500000000000    0.8156750000000000    0.7778250000000000    !H
   0.8430500000000000    0.8156750000000000    0.7778250000000000    !H
   0.8430500000000000    0.8156750000000000    0.7778250000000000    !H
   0.8430500000000000    0.8156750000000000    0.7778250000000000    !H
   0.8430500000000000    0.8156750000000000    0.7778250000000000    !H
   0.8430500000000000    0.8156750000000000    0.7778250000000000    !H
   0.8430500000000000    0.8156750000000000    0.7778250000000000    !H
   0.8430500000000000    0.8156750000000000    0.7778250000000000    !H
   0.8430500000000000    0.8156750000000000    0.7778250000000000    !H
   0.8430500000000000    0.8156750000000000    0.7778250000000000    !H
   0.8430500000000000    0.8156750000000000    0.7778250000000000    !H
   0.8430500000000000    0.8156750000000000    0.7778250000000000    !H
   0.8430500000000000    0.8156750000000000    0.7778250000000000    !H
   0.8430500000000000    0.8156750000000000    0.7778250000000000    !H
   0.8430500000000000    0.8156750000000000    0.7778250000000000    !H
   0.8430500000000000    0.8156750000000000    0.7778250000000000    !H
   0.0971750000000000    0.1569500000000000    0.1906750000000000    !H
   0.0971750000000000    0.1569500000000000    0.1906750000000000    !H
   0.0971750000000000    0.1569500000000000    0.1906750000000000    !H
   0.0971750000000000    0.1569500000000000    0.1906750000000000    !H
   0.0971750000000000    0.1569500000000000    0.1906750000000000    !H
   0.0971750000000000    0.1569500000000000    0.1906750000000000    !H
   0.0971750000000000    0.1569500000000000    0.1906750000000000    !H
   0.0971750000000000    0.1569500000000000    0.1906750000000000    !H
   0.0971750000000000    0.1569500000000000    0.1906750000000000    !H
   0.0971750000000000    0.1569500000000000    0.1906750000000000    !H
   0.0971750000000000    0.1569500000000000    0.1906750000000000    !H
   0.0971750000000000    0.1569500000000000    0.1906750000000000    !H
   0.0971750000000000    0.1569500000000000    0.1906750000000000    !H
   0.0971750000000000    0.1569500000000000    0.1906750000000000    !H
   0.0971750000000000    0.1569500000000000    0.1906750000000000    !H
   0.0971750000000000    0.1569500000000000    0.1906750000000000    !H
   0.3471750000000000    0.4069500000000000    0.4406750000000000    !H
   0.3471750000000000    0.4069500000000000    0.4406750000000000    !H
   0.3471750000000000    0.4069500000000000    0.4406750000000000    !H
   0.3471750000000000    0.4069500000000000    0.4406750000000000    !H
   0.3471750000000000    0.4069500000000000    0.4406750000000000    !H
   0.3471750000000000    0.4069500000000000    0.4406750000000000    !H
   0.3471750000000000    0.4069500000000000    0.4406750000000000    !H
   0.3471750000000000    0.4069500000000000    0.4406750000000000    !H
   0.3471750000000000    0.4069500000000000    0.4406750000000000    !H
   0.3471750000000000    0.4069500000000000    0.4406750000000000    !H
   0.3471750000000000    0.4069500000000000    0.4406750000000000    !H
   0.3471750000000000    0.4069500000000000    0.4406750000000000    !H
   0.3471750000000000    0.4069500000000000    0.4406750000000000    !H
   0.3471750000000000    0.4069500000000000    0.4406750000000000    !H
   0.3471750000000000    0.4069500000000000    0.4406750000000000    !H
   0.3471750000000000    0.4069500000000000    0.4406750000000000    !H
   0.5971750000000000    0.6569500000000000    0.6906749999999999    !H
   0.5971750000000000    0.6569500000000000    0.6906749999999999    !H
   0.5971750000000000    0.6569500000000000    0.6906749999999999    !H
   0.5971750000000000    0.6569500000000000    0.6906749999999999    !H
   0.5971750000000000    0.6569500000000000    0.6906749999999999    !H
   0.5971750000000000    0.6569500000000000    0.6906749999999999    !H
   0.5971750000000000    0.6569500000000000    0.6906749999999999    !H
   0.5971750000000000    0.6569500000000000    0.6906749999999999    !H
   0.5971750000000000    0.6569500000000000    0.6906749999999999    !H
   0.5971750000000000    0.6569500000000000    0.6906749999999999    !H
   0.5971750000000000    0.6569500000000000    0.6906749999999999    !H
   0.5971750000000000    0.6569500000000000    0.6906749999999999    !H
   0.5971750000000000    0.6569500000000000    0.6906749999999999    !H
   0.5971750000000000    0.6569500000000000    0.6906749999999999    !H
   0.5971750000000000    0.6569500000000000    0.6906749999999999    !H
   0.5971750000000000    0.6569500000000000    0.6906749999999999    !H
   0.8471750000000000    0.9069500000000000    0.9406749999999999    !H
   0.8471750000000000    0.9069500000000000    0.9406749999999999    !H
   0.8471750000000000    0.9069500000000000    0.9406749999999999    !H
   0.8471750000000000    0.9069500000000000    0.9406749999999999    !H
   0.8471750000000000    0.9069500000000000    0.9406749999999999    !H
   0.8471750000000000    0.9069500000000000    0.9406749999999999    !H
   0.8471750000000000    0.9069500000000000    0.9406749999999999    !H
   0.8471750000000000    0.9069500000000000    0.9406749999999999    !H
   0.8471750000000000    0.9069500000000000    0.9406749999999999    !H
   0.8471750000000000    0.9069500000000000    0.9406749999999999    !H
   0.8471750000000000    0.9069500000000000    0.9406749999999999    !H
   0.8471750000000000    0.9069500000000000    0.9406749999999999    !H
   0.8471750000000000    0.9069500000000000    0.9406749999999999    !H
   0.8471750000000000    0.9069500000000000    0.9406749999999999    !H
   0.8471750000000000    0.9069500000000000    0.9406749999999999    !H
   0.8471750000000000    0.9069500000000000    0.9406749999999999    !H
   0.0593250000000000    0.2221750000000000    0.2180500000000000    !H
   0.0593250000000000    0.2221750000000000    0.2180500000000000    !H
   0.0593250000000000    0.2221750000000000    0.2180500000000000    !H
   0.0593250000000000    0.2221750000000000    0.2180500000000000    !H
   0.0593250000000000    0.2221750000000000    0.2180500000000000    !H
   0.0593250000000000    0.2221750000000000    0.2180500000000000    !H
   0.0593250000000000    0.2221750000000000    0.2180500000000000    !H
   0.0593250000000000    0.2221750000000000    0.2180500000000000    !H
   0.0593250000000000    0.2221750000000000    0.2180500000000000    !H
   0.0593250000000000    0.2221750000000000    0.2180500000000000    !H
   0.0593250000000000    0.2221750000000000    0.2180500000000000    !H
   0.0593250000000000    0.2221750000000000    0.2180500000000000    !H
   0.0593250000000000    0.2221750000000000    0.2180500000000000    !H
   0.0593250000000000    0.2221750000000000    0.2180500000000000    !H
   0.0593250000000000    0.2221750000000000    0.2180500000000000    !H
   0.0593250000000000    0.2221750000000000    0.2180500000000000    !H
   0.3093250000000000    0.4721750000000000    0.4680500000000000    !H
   0.3093250000000000    0.4721750000000000    0.4680500000000000    !H
   0.3093250000000000    0.4721750000000000    0.4680500000000000    !H
   0.3093250000000000    0.4721750000000000    0.4680500000000000    !H
   0.3093250000000000    0.4721750000000000    0.4680500000000000    !H
   0.3093250000000000    0.4721750000000000    0.4680500000000000    !H
   0.3093250000000000    0.4721750000000000    0.4680500000000000    !H
   0.3093250000000000    0.4721750000000000    0.4680500000000000    !H
   0.3093250000000000    0.4721750000000000    0.4680500000000000    !H
   0.3093250000000000    0.4721750000000000    0.4680500000000000    !H
   0.3093250000000000    0.4721750000000000    0.4680500000000000    !H
   0.3093250000000000    0.4721750000000000    0.4680500000000000    !H
   0.3093250000000000    0.4721750000000000    0.4680500000000000    !H
   0.3093250000000000    0.4721750000000000    0.4680500000000000    !H
   0.3093250000000000    0.4721750000000000    0.4680500000000000    !H
   0.3093250000000000    0.4721750000000000    0.4680500000000000    !H
   0.5593250000000000    0.7221750000000000    0.7180500000000000    !H
   0.5593250000000000    0.7221750000000000    0.7180500000000000    !H
   0.5593250000000000    0.7221750000000000    0.7180500000000000    !H
   0.5593250000000000    0.7221750000000000    0.7180500000000000    !H
   0.5593250000000000    0.7221750000000000    0.7180500000000000    !H
   0.5593250000000000    0.7221750000000000    0.7180500000000000    !H
   0.5593250000000000    0.7221750000000000    0.7180500000000000    !H
   0.5593250000000000    0.7221750000000000    0.7180500000000000    !H
   0.5593250000000000    0.7221750000000000    0.7180500000000000    !H
   0.5593250000000000    0.7221750000000000    0.7180500000000000    !H
   0.5593250000000000    0.7221750000000000    0.7180500000000000    !H
   0.5593250000000000    0.7221750000000000    0.7180500000000000    !H
   0.5593250000000000    0.7221750000000000    0.7180500000000000    !H
   0.5593250000000000    0.7221750000000000    0.7180500000000000    !H
   0.5593250000000000    0.7221750000000000    0.7180500000000000    !H
   0.5593250000000000    0.7221750000000000    0.7180500000000000    !H
   0.8093250000000000    0.9721750000000000    0.9680500000000000    !H
   0.8093250000000000    0.9721750000000000    0.9680500000000000    !H
   0.8093250000000000    0.9721750000000000    0.9680500000000000    !H
   0.8093250000000000    0.9721750000000000    0.9680500000000000    !H
   0.8093250000000000    0.9721750000000000    0.9680500000000000    !H
   0.8093250000000000    0.9721750000000000    0.9680500000000000    !H
   0.8093250000000000    0.9721750000000000    0.9680500000000000    !H
   0.8093250000000000    0.9721750000000000    0.9680500000000000    !H
   0.8093250000000000    0.9721750000000000    0.9680500000000000    !H
   0.8093250000000000    0.9721750000000000    0.9680500000000000    !H
   0.8093250000000000    0.9721750000000000    0.9680500000000000    !H
   0.8093250000000000    0.9721750000000000    0.9680500000000000    !H
   0.8093250000000000    0.9721750000000000    0.9680500000000000    !H
   0.8093250000000000    0.9721750000000000    0.9680500000000000    !H
   0.8093250000000000    0.9721750000000000    0.9680500000000000    !H
   0.8093250000000000    0.9721750000000000    0.9680500000000000    !H
   0.0319500000000000    0.1843250000000000    0.1528250000000000    !H
   0.0319500000000000    0.1843250000000000    0.1528250000000000    !H
   0.0319500000000000    0.1843250000000000    0.1528250000000000    !H
   0.0319500000000000    0.1843250000000000    0.1528250000000000    !H
   0.0319500000000000    0.1843250000000000    0.1528250000000000    !H
   0.0319500000000000    0.1843250000000000    0.1528250000000000    !H
   0.0319500000000000    0.1843250000000000    0.1528250000000000    !H
   0.0319500000000000    0.1843250000000000    0.1528250000000000    !H
   0.0319500000000000    0.1843250000000000    0.1528250000000000    !H
   0.0319500000000000    0.1843250000000000    0.1528250000000000    !H
   0.0319500000000000    0.1843250000000000    0.1528250000000000    !H
   0.0319500000000000    0.1843250000000000    0.1528250000000000    !H
   0.0319500000000000    0.1843250000000000    0.1528250000000000    !H
   0.0319500000000000    0.1843250000000000    0.1528250000000000    !H
   0.0319500000000000    0.1843250000000000    0.1528250000000000    !H
   0.0319500000000000    0.1843250000000000    0.1528250000000000    !H
   0.2819500000000000    0.4343250000000000    0.4028250000000000    !H
   0.2819500000000000    0.4343250000000000    0.4028250000000000    !H
   0.2819500000000000    0.4343250000000000    0.4028250000000000    !H
   0.2819500000000000    0.4343250000000000    0.4028250000000000    !H
   0.2819500000000000    0.4343250000000000    0.4028250000000000    !H
   0.2819500000000000    0.4343250000000000    0.4028250000000000    !H
   0.2819500000000000    0.4343250000000000    0.4028250000000000    !H
   0.2819500000000000    0.4343250000000000    0.4028250000000000    !H
   0.2819500000000000    0.4343250000000000    0.4028250000000000    !H
   0.2819500000000000    0.4343250000000000    0.4028250000000000    !H
   0.2819500000000000    0.4343250000000000    0.4028250000000000    !H
   0.2819500000000000    0.4343250000000000    0.4028250000000000    !H
   0.2819500000000000    0.4343250000000000    0.4028250000000000    !H
   0.2819500000000000    0.4343250000000000    0.4028250000000000    !H
   0.2819500000000000    0.4343250000000000    0.4028250000000000    !H
   0.2819500000000000    0.4343250000000000    0.4028250000000000    !H
   0.5319500000000000    0.6843250000000001    0.6528250000000000    !H
   0.5319500000000000    0.6843250000000001    0.6528250000000000    !H
   0.5319500000000000    0.6843250000000001    0.6528250000000000    !H
   0.5319500000000000    0.6843250000000001    0.6528250000000000    !H
   0.5319500000000000    0.6843250000000001    0.6528250000000000    !H
   0.5319500000000000    0.6843250000000001    0.6528250000000000    !H
   0.5319500000000000    0.6843250000000001    0.6528250000000000    !H
   0.5319500000000000    0.6843250000000001    0.6528250000000000    !H
   0.5319500000000000    0.6843250000000001    0.6528250000000000    !H
   0.5319500000000000    0.6843250000000001    0.6528250000000000    !H
   0.5319500000000000    0.6843250000000001    0.6528250000000000    !H
   0.5319500000000000    0.6843250000000001    0.6528250000000000    !H
   0.5319500000000000    0.6843250000000001    0.6528250000000000    !H
   0.5319500000000000    0.6843250000000001    0.6528250000000000    !H
   0.5319500000000000    0.6843250000000001    0.6528250000000000    !H
   0.5319500000000000    0.6843250000000001    0.6528250000000000    !H
   0.7819500000000000    0.9343250000000001    0.9028250000000000    !H
   0.7819500000000000    0.9343250000000001    0.9028250000000000    !H
   0.7819500000000000    0.9343250000000001    0.9028250000000000    !H
   0.7819500000000000    0.9343250000000001    0.9028250000000000    !H
   0.7819500000000000    0.9343250000000001    0.9028250000000000    !H
   0.7819500000000000    0.9343250000000001    0.9028250000000000    !H
   0.7819500000000000    0.9343250000000001    0.9028250000000000    !H
   0.7819500000000000    0.9343250000000001    0.9028250000000000    !H
   0.7819500000000000    0.9343250000000001    0.9028250000000000    !H
   0.7819500000000000    0.9343250000000001    0.9028250000000000    !H
   0.7819500000000000    0.9343250000000001    0.9028250000000000    !H
   0.7819500000000000    0.9343250000000001    0.9028250000000000    !H
   0.7819500000000000    0.9343250000000001    0.9028250000000000    !H
   0.7819500000000000    0.9343250000000001    0.9028250000000000    !H
   0.7819500000000000    0.9343250000000001    0.9028250000000000    !H
   0.7819500000000000    0.9343250000000001    0.9028250000000000    !H
   0.2221750000000000    0.2180500000000000    0.0593250000000000    !H
   0.2221750000000000    0.2180500000000000    0.0593250000000000    !H
   0.2221750000000000    0.2180500000000000    0.0593250000000000    !H
   0.2221750000000000    0.2180500000000000    0.0593250000000000    !H
   0.2221750000000000    0.2180500000000000    0.0593250000000000    !H
   0.2221750000000000    0.2180500000000000    0.0593250000000000    !H
   0.2221750000000000    0.2180500000000000    0.0593250000000000    !H
   0.2221750000000000    0.2180500000000000    0.0593250000000000    !H
   0.2221750000000000    0.2180500000000000    0.0593250000000000    !H
   0.2221750000000000    0.2180500000000000    0.0593250000000000    !H
   0.2221750000000000    0.2180500000000000    0.0593250000000000    !H
   0.2221750000000000    0.2180500000000000    0.0593250000000000    !H
   0.2221750000000000    0.2180500000000000    0.0593250000000000    !H
   0.2221750000000000    0.2180500000000000    0.0593250000000000    !H
   0.2221750000000000    0.2180500000000000    0.0593250000000000    !H
   0.2221750000000000    0.2180500000000000    0.0593250000000000    !H
   0.4721750000000000    0.4680500000000000    0.3093250000000000    !H
   0.4721750000000000    0.4680500000000000    0.3093250000000000    !H
   0.4721750000000000    0.4680500000000000    0.3093250000000000    !H
   0.4721750000000000    0.4680500000000000    0.3093250000000000    !H
   0.4721750000000000    0.4680500000000000    0.3093250000000000    !H
   0.4721750000000000    0.4680500000000000    0.3093250000000000    !H
   0.4721750000000000    0.4680500000000000    0.3093250000000000    !H
   0.4721750000000000    0.4680500000000000    0.3093250000000000    !H
   0.4721750000000000    0.4680500000000000    0.3093250000000000    !H
   0.4721750000000000    0.4680500000000000    0.3093250000000000    !H
   0.4721750000000000    0.4680500000000000    0.3093250000000000    !H
   0.4721750000000000    0.4680500000000000    0.3093250000000000    !H
   0.4721750000000000    0.4680500000000000    0.3093250000000000    !H
   0.4721750000000000    0.4680500000000000    0.3093250000000000    !H
   0.4721750000000000    0.4680500000000000    0.3093250000000000    !H
   0.4721750000000000    0.4680500000000000    0.3093250000000000    !H
   0.7221750000000000    0.7180500000000000    0.5593250000000000    !H
   0.7221750000000000    0.7180500000000000    0.5593250000000000    !H
   0.7221750000000000    0.7180500000000000    0.5593250000000000    !H
   0.7221750000000000    0.7180500000000000    0.5593250000000000    !H
   0.7221750000000000    0.7180500000000000    0.5593250000000000    !H
   0.7221750000000000    0.7180500000000000    0.5593250000000000    !H
   0.7221750000000000    0.7180500000000000    0.5593250000000000    !H
   0.7221750000000000    0.7180500000000000    0.5593250000000000    !H
   0.7221750000000000    0.7180500000000000    0.5593250000000000    !H
   0.7221750000000000    0.7180500000000000    0.5593250000000000    !H
   0.7221750000000000    0.7180500000000000    0.5593250000000000    !H
   0.7221750000000000    0.7180500000000000    0.5593250000000000    !H
   0.7221750000000000    0.7180500000000000    0.5593250000000000    !H
   0.7221750000000000    0.7180500000000000    0.5593250000000000    !H
   0.7221750000000000    0.7180500000000000    0.5593250000000000    !H
   0.7221750000000000    0.7180500000000000    0.5593250000000000    !H
   0.9721750000000000    0.9680500000000000    0.8093250000000000    !H
   0.9721750000000000    0.9680500000000000    0.8093250000000000    !H
   0.9721750000000000    0.9680500000000000    0.8093250000000000    !H
   0.9721750000000000    0.9680500000000000    0.8093250000000000    !H
   0.9721750000000000    0.9680500000000000    0.8093250000000000    !H
   0.9721750000000000    0.9680500000000000    0.8093250000000000    !H
   0.9721750000000000    0.9680500000000000    0.8093250000000000    !H
   0.9721750000000000    0.9680500000000000    0.8093250000000000    !H
   0.9721750000000000    0.9680500000000000    0.8093250000000000    !H
   0.9721750000000000    0.9680500000000000    0.8093250000000000    !H
   0.9721750000000000    0.9680500000000000    0.8093250000000000    !H
   0.9721750000000000    0.9680500000000000    0.8093250000000000    !H
   0.9721750000000000    0.9680500000000000    0.8093250000000000    !H
   0.9721750000000000    0.9680500000000000    0.8093250000000000    !H
   0.9721750000000000    0.9680500000000000    0.8093250000000000    !H
   0.9721750000000000    0.9680500000000000    0.8093250000000000    !H
   0.1843250000000000    0.1528250000000000    0.0319500000000000    !H
   0.1843250000000000    0.1528250000000000    0.0319500000000000    !H
   0.1843250000000000    0.1528250000000000    0.0319500000000000    !H
   0.1843250000000000    0.1528250000000000    0.0319500000000000    !H
   0.1843250000000000    0.1528250000000000    0.0319500000000000    !H
   0.1843250000000000    0.1528250000000000    0.0319500000000000    !H
   0.1843250000000000    0.1528250000000000    0.0319500000000000    !H
   0.1843250000000000    0.1528250000000000    0.0319500000000000    !H
   0.1843250000000000    0.1528250000000000    0.0319500000000000    !H
   0.1843250000000000    0.1528250000000000    0.0319500000000000    !H
   0.1843250000000000    0.1528250000000000    0.0319500000000000    !H
   0.1843250000000000    0.1528250000000000    0.0319500000000000    !H
   0.1843250000000000    0.1528250000000000    0.0319500000000000    !H
   0.1843250000000000    0.1528250000000000    0.0319500000000000    !H
   0.1843250000000000    0.1528250000000000    0.0319500000000000    !H
   0.1843250000000000    0.1528250000000000    0.0319500000000000    !H
   0.4343250000000000    0.4028250000000000    0.2819500000000000    !H
   0.4343250000000000    0.4028250000000000    0.2819500000000000    !H
   0.4343250000000000    0.4028250000000000    0.2819500000000000    !H
   0.4343250000000000    0.4028250000000000    0.2819500000000000    !H
   0.4343250000000000    0.4028250000000000    0.2819500000000000    !H
   0.4343250000000000    0.4028250000000000    0.2819500000000000    !H
   0.4343250000000000    0.4028250000000000    0.2819500000000000    !H
   0.4343250000000000    0.4028250000000000    0.2819500000000000    !H
   0.4343250000000000    0.4028250000000000    0.2819500000000000    !H
   0.4343250000000000    0.4028250000000000    0.2819500000000000    !H
   0.4343250000000000    0.4028250000000000    0.2819500000000000    !H
   0.4343250000000000    0.4028250000000000    0.2819500000000000    !H
   0.4343250000000000    0.4028250000000000    0.2819500000000000    !H
   0.4343250000000000    0.4028250000000000    0.2819500000000000    !H
   0.4343250000000000    0.4028250000000000    0.2819500000000000    !H
   0.4343250000000000    0.4028250000000000    0.2819500000000000    !H
   0.6843250000000001    0.6528250000000000    0.5319500000000000    !H
   0.6843250000000001    0.6528250000000000    0.5319500000000000    !H
   0.6843250000000001    0.6528250000000000    0.5319500000000000    !H
   0.6843250000000001    0.6528250000000000    0.5319500000000000    !H
   0.6843250000000001    0.6528250000000000    0.5319500000000000    !H
   0.6843250000000001    0.6528250000000000    0.5319500000000000    !H
   0.6843250000000001    0.6528250000000000    0.5319500000000000    !H
   0.6843250000000001    0.6528250000000000    0.5319500000000000    !H
   0.6843250000000001    0.6528250000000000    0.5319500000000000    !H
   0.6843250000000001    0.6528250000000000    0.5319500000000000    !H
   0.6843250000000001    0.6528250000000000    0.5319500000000000    !H
   0.6843250000000001    0.6528250000000000    0.5319500000000000    !H
   0.6843250000000001    0.6528250000000000    0.5319500000000000    !H
   0.6843250000000001    0.6528250000000000    0.5319500000000000    !H
   0.6843250000000001    0.6528250000000000    0.5319500000000000    !H
   0.6843250000000001    0.6528250000000000    0.5319500000000000    !H
   0.9343250000000001    0.9028250000000000    0.7819500000000000    !H
   0.9343250000000001    0.9028250000000000    0.7819500000000000    !H
   0.9343250000000001    0.9028250000000000    0.7819500000000000    !H
   0.9343250000000001    0.9028250000000000    0.7819500000000000    !H
   0.9343250000000001    0.9028250000000000    0.7819500000000000    !H
   0.9343250000000001    0.9028250000000000    0.7819500000000000    !H
   0.9343250000000001    0.9028250000000000    0.7819500000000000    !H
   0.9343250000000001    0.9028250000000000    0.7819500000000000    !H
   0.9343250000000001    0.9028250000000000    0.7819500000000000    !H
   0.9343250000000001    0.9028250000000000    0.7819500000000000    !H
   0.9343250000000001    0.9028250000000000    0.7819500000000000    !H
   0.9343250000000001    0.9028250000000000    0.7819500000000000    !H
   0.9343250000000001    0.9028250000000000    0.7819500000000000    !H
   0.9343250000000001    0.9028250000000000    0.7819500000000000    !H
   0.9343250000000001    0.9028250000000000    0.7819500000000000    !H
   0.9343250000000001    0.9028250000000000    0.7819500000000000    !H
   0.1569500000000000    0.1906750000000000    0.0971750000000000    !H
   0.1569500000000000    0.1906750000000000    0.0971750000000000    !H
   0.1569500000000000    0.1906750000000000    0.0971750000000000    !H
   0.1569500000000000    0.1906750000000000    0.0971750000000000    !H
   0.1569500000000000    0.1906750000000000    0.0971750000000000    !H
   0.1569500000000000    0.1906750000000000    0.0971750000000000    !H
   0.1569500000000000    0.1906750000000000    0.0971750000000000    !H
   0.1569500000000000    0.1906750000000000    0.0971750000000000    !H
   0.1569500000000000    0.1906750000000000    0.0971750000000000    !H
   0.1569500000000000    0.1906750000000000    0.0971750000000000    !H
   0.1569500000000000    0.1906750000000000    0.0971750000000000    !H
   0.1569500000000000    0.1906750000000000    0.0971750000000000    !H
   0.1569500000000000    0.1906750000000000    0.0971750000000000    !H
   0.1569500000000000    0.1906750000000000    0.0971750000000000    !H
   0.1569500000000000    0.1906750000000000    0.0971750000000000    !H
   0.1569500000000000    0.1906750000000000    0.0971750000000000    !H
   0.4069500000000000    0.4406750000000000    0.3471750000000000    !H
   0.4069500000000000    0.4406750000000000    0.3471750000000000    !H
   0.4069500000000000    0.4406750000000000    0.3471750000000000    !H
   0.4069500000000000    0.4406750000000000    0.3471750000000000    !H
   0.4069500000000000    0.4406750000000000    0.3471750000000000    !H
   0.4069500000000000    0.4406750000000000    0.3471750000000000    !H
   0.4069500000000000    0.4406750000000000    0.3471750000000000    !H
   0.4069500000000000    0.4406750000000000    0.3471750000000000    !H
   0.4069500000000000    0.4406750000000000    0.3471750000000000    !H
   0.4069500000000000    0.4406750000000000    0.3471750000000000    !H
   0.4069500000000000    0.4406750000000000    0.3471750000000000    !H
   0.4069500000000000    0.4406750000000000    0.3471750000000000    !H
   0.4069500000000000    0.4406750000000000    0.3471750000000000    !H