 &control
    calculation = 'relax',
    restart_mode = 'from_scratch',
    prefix = 'zrh2',
    outdir = 'tmp_output',
    pseudo_dir = '/home/zjyx/svn_personal/pp/espresso'
 /
 &system
    ibrav = 8,
    a = 3.52,
    b = 3.52,
    c = 4.449,
    nat = 6,
    ntyp = 2,
    ecutwfc = 40
 /
 &electrons
    mixing_beta = 0.7,
    conv_thr = 1.d-8,
    electron_maxstep = 100,
    startingwfc = 'atomic+random'
 /
 &ions
    ion_positions = "default"
 /

ATOMIC_SPECIES
 H  1.000  H.pbe-mt_fhi.UPF
 Zr 91.224  Zr.pbe-mt_fhi.UPF

K_POINTS automatic
 5 5 5 0 0 0

ATOMIC_POSITIONS angstrom
 Zr   0.000000000         0.000000000         0.000000000
 Zr   1.759999990         1.759999990         2.224499941
 H   0.000000000         1.759999990         1.112249970
 H   1.759999990         0.000000000         1.112249970
 H   1.759999990         0.000000000         3.336749911
 H   0.000000000         1.759999990         3.336749911

